(set-info :smt-lib-version 2.6)
(set-logic QF_UFLRA)
(set-info :source |
MathSat group

|)
(set-info :category "random")
(set-info :status sat)
(declare-fun x0 () Real)
(declare-fun x1 () Real)
(declare-fun x2 () Real)
(declare-fun x3 () Real)
(declare-fun x4 () Real)
(declare-fun x5 () Real)
(declare-fun x6 () Real)
(declare-fun x7 () Real)
(declare-fun x8 () Real)
(declare-fun x9 () Real)
(declare-fun x10 () Real)
(declare-fun x11 () Real)
(declare-fun x12 () Real)
(declare-fun x13 () Real)
(declare-fun x14 () Real)
(declare-fun x15 () Real)
(declare-fun x16 () Real)
(declare-fun x17 () Real)
(declare-fun x18 () Real)
(declare-fun x19 () Real)
(declare-fun x20 () Real)
(declare-fun x21 () Real)
(declare-fun x22 () Real)
(declare-fun x23 () Real)
(declare-fun x24 () Real)
(declare-fun x25 () Real)
(declare-fun x26 () Real)
(declare-fun x27 () Real)
(declare-fun x28 () Real)
(declare-fun x29 () Real)
(declare-fun f0_1 (Real) Real)
(declare-fun f0_2 (Real Real) Real)
(declare-fun f0_3 (Real Real Real) Real)
(declare-fun f0_4 (Real Real Real Real) Real)
(declare-fun P0 () Bool)
(declare-fun P1 () Bool)
(declare-fun P2 () Bool)
(declare-fun P3 () Bool)
(declare-fun P4 () Bool)
(declare-fun P5 () Bool)
(declare-fun P6 () Bool)
(declare-fun P7 () Bool)
(declare-fun P8 () Bool)
(declare-fun P9 () Bool)
(declare-fun P10 () Bool)
(declare-fun P11 () Bool)
(declare-fun P12 () Bool)
(declare-fun P13 () Bool)
(declare-fun P14 () Bool)
(declare-fun P15 () Bool)
(declare-fun P16 () Bool)
(declare-fun P17 () Bool)
(declare-fun P18 () Bool)
(declare-fun P19 () Bool)
(declare-fun P20 () Bool)
(declare-fun P21 () Bool)
(declare-fun P22 () Bool)
(declare-fun P23 () Bool)
(declare-fun P24 () Bool)
(declare-fun P25 () Bool)
(declare-fun P26 () Bool)
(declare-fun P27 () Bool)
(declare-fun P28 () Bool)
(declare-fun P29 () Bool)
(assert (let ((?v_62 (* 37 x14)) (?v_125 (distinct (- (+ (* 37 x18) (* 36 x25)) (* 4 x24)) 25)) (?v_76 (<= (- (- (* 3 x22) (* 2 x18)) (* 7 x16)) 21)) (?v_1 (* 23 x21))) (let ((?v_103 (< (+ (- ?v_1 (* 38 x20)) (* 40 x27)) 41)) (?v_0 (* 39 x27)) (?v_59 (= (f0_2 x13 x20) (f0_2 x28 x9))) (?v_19 (distinct x22 (f0_2 x15 x28))) (?v_31 (distinct x24 x24)) (?v_34 (= (f0_1 x1) (f0_1 x14))) (?v_29 (= (f0_1 x6) x26)) (?v_5 (distinct x5 (f0_2 x18 x0))) (?v_37 (f0_1 x0)) (?v_25 (f0_1 x11))) (let ((?v_13 (= ?v_37 ?v_25)) (?v_41 (f0_1 x24))) (let ((?v_70 (= x14 ?v_41)) (?v_8 (distinct (f0_2 x13 x22) x16)) (?v_6 (distinct (f0_2 x12 x7) ?v_41)) (?v_95 (f0_1 x27))) (let ((?v_42 (= ?v_95 x20)) (?v_65 (= ?v_25 (f0_1 x22))) (?v_11 (= x28 (f0_1 x28))) (?v_56 (= ?v_37 (f0_2 x16 x18))) (?v_101 (= (f0_1 x19) (f0_2 x23 x9))) (?v_151 (distinct x12 (f0_1 x13))) (?v_64 (distinct (f0_1 x9) x12)) (?v_45 (= (f0_2 x27 x10) x14)) (?v_27 (distinct (f0_1 x16) (f0_2 x7 x14))) (?v_118 (= x17 (f0_2 x28 x0))) (?v_18 (= (f0_2 x29 x5) x4)) (?v_73 (distinct (f0_2 x20 x29) x24)) (?v_97 (distinct x8 (f0_2 x6 x19))) (?v_24 (distinct (f0_2 x11 x5) x9)) (?v_67 (distinct x25 x22)) (?v_100 (distinct ?v_95 (f0_2 x28 x8))) (?v_79 (= x21 x22)) (?v_15 (distinct x0 (f0_2 x13 x2))) (?v_33 (distinct (f0_1 x21) (f0_1 x2))) (?v_75 (= (f0_2 x27 x17) x18)) (?v_63 (not P11)) (?v_48 (not ?v_19)) (?v_23 (not P26)) (?v_85 (not P14)) (?v_78 (not ?v_13)) (?v_86 (not P5)) (?v_121 (not P16)) (?v_72 (not ?v_31)) (?v_3 (not P18)) (?v_71 (not P24)) (?v_104 (not ?v_103)) (?v_35 (not P27)) (?v_112 (not ?v_29))) (let ((?v_28 (not ?v_33)) (?v_32 (not ?v_5)) (?v_26 (not P21)) (?v_49 (not ?v_8)) (?v_92 (not P22)) (?v_69 (not ?v_11)) (?v_57 (not P29)) (?v_142 (not P3)) (?v_123 (not ?v_59)) (?v_66 (not ?v_18)) (?v_38 (not ?v_24)) (?v_81 (not ?v_65)) (?v_55 (not ?v_151)) (?v_130 (not P12)) (?v_47 (not ?v_6)) (?v_110 (not P19)) (?v_77 (not ?v_70)) (?v_99 (not ?v_101)) (?v_52 (not ?v_45)) (?v_127 (not ?v_75)) (?v_98 (not ?v_118)) (?v_107 (not P8)) (?v_113 (or ?v_33 P21)) (?v_140 (not P9)) (?v_80 (not ?v_56)) (?v_108 (not ?v_76)) (?v_84 (not P10)) (?v_144 (not ?v_64)) (?v_133 (not P4)) (?v_109 (not P6)) (?v_91 (not ?v_73)) (?v_105 (not ?v_79)) (?v_147 (not ?v_34)) (?v_111 (not ?v_100)) (?v_152 (not P20)) (?v_124 (not P28)) (?v_114 (not P2)) (?v_132 (not ?v_42)) (?v_120 (not ?v_15)) (?v_131 (not P17)) (?v_138 (not P0)) (?v_143 (not P7)) (?v_136 (not P23)) (?v_126 (not P1)) (?v_134 (not P13)) (?v_141 (not ?v_27)) (?v_135 (not P25)) (?v_153 (not ?v_97)) (?v_154 (not ?v_125)) (?v_7 (<= (+ (* 30 x2) (* 12 x8) (* 2 x4)) 36)) (?v_20 (distinct (+ (* 24 x22) (* 28 x29)) 20)) (?v_22 (<= (+ (* 15 x3) (* 10 x17) (* 18 x7)) 23))) (let ((?v_30 (not ?v_22)) (?v_21 (not ?v_20)) (?v_117 (not ?v_7)) (?v_9 (<= (- (- (* (- 22) x21) (* 5 x14)) (* 32 x26)) (- 41)))) (let ((?v_128 (not ?v_9)) (?v_17 (<= (+ (- (* 10 x16) (* 4 x6)) (* 37 x8)) (- 18)))) (let ((?v_10 (not ?v_17)) (?v_94 (< (- (- (* 2 x0) (* 31 x1)) ?v_62) (- 12)))) (let ((?v_150 (not ?v_94)) (?v_61 (< (+ (* 10 x2) ?v_1 (* 4 x11)) (- 10)))) (let ((?v_43 (not ?v_61)) (?v_2 (distinct (- (- (* (- 28) x5) (* 34 x5)) (* 4 x15)) (- 33)))) (let ((?v_4 (not ?v_2)) (?v_68 (< (+ (* (- 24) x11) (* 19 x18) (* 26 x27)) 7)) (?v_74 (<= (+ (- (* 19 x20) (* 28 x18)) (* 36 x17)) (- 17)))) (let ((?v_36 (not ?v_74)) (?v_12 (distinct (+ (- (* (- 24) x9) ?v_0) ?v_0) (- 26))) (?v_14 (< (- (- (* 17 x22) (* 18 x24)) x22) (- 41)))) (let ((?v_116 (not ?v_14)) (?v_46 (< (+ (* (- 6) x7) (* 27 x11) (* 35 x7)) (- 25)))) (let ((?v_82 (not ?v_46)) (?v_60 (<= (+ (* 32 x21) (* 25 x29) (* 17 x2)) (- 24)))) (let ((?v_16 (not ?v_60)) (?v_40 (<= (+ (- (* (- 30) x12) (* 2 x3)) (* 3 x20)) (- 37))) (?v_89 (<= (- (+ (* (- 25) x21) (* 4 x12)) (* 6 x15)) (- 36)))) (let ((?v_53 (not ?v_89)) (?v_39 (<= (- (- (* 15 x16) (* 26 x22)) (* 13 x23)) (- 26))) (?v_44 (<= (+ (- (* (- 8) x9) (* 14 x11)) (* 40 x14)) (- 1))) (?v_50 (< (- (+ (* 38 x9) (* 12 x15)) (* 3 x4)) (- 22))) (?v_51 (distinct (- (+ (* 7 x25) (* 36 x20)) (* 3 x5)) (- 20))) (?v_146 (< (- (- (* (- 4) x25) (* 26 x3)) (* 3 x9)) 38))) (let ((?v_119 (not ?v_146)) (?v_115 (not ?v_40)) (?v_102 (not ?v_44)) (?v_83 (< (- (- (* (- 39) x21) (* 13 x9)) (* 20 x6)) 0))) (let ((?v_90 (not ?v_83)) (?v_96 (not ?v_50)) (?v_54 (not ?v_51)) (?v_122 (< (- (* 4 x28) (* 5 x27)) (- 21))) (?v_58 (<= (- (- (* 29 x12) (* 21 x8)) (* 22 x12)) (- 5)))) (let ((?v_139 (not ?v_58)) (?v_129 (<= (+ (- (* (- 12) x26) (* 35 x16)) ?v_62) 26)) (?v_88 (= (- (+ (* 17 x23) x27) (* 40 x18)) (- 37)))) (let ((?v_87 (not ?v_88)) (?v_93 (<= (+ (* (- 3) x22) (* 21 x26) (* 23 x14)) (- 34)))) (let ((?v_106 (not ?v_93)) (?v_145 (not ?v_39)) (?v_149 (not ?v_68)) (?v_148 (not ?v_129)) (?v_137 (not ?v_122)) (?v_155 (or ?v_30 ?v_128))) (and (and (and (and (and (and (and (and (and (and (and (and (and (and (and (and (and (and (and (and (and (and (and (and (and (and (and (and (and (and (and (and (and (and (and (and (and (and (and (and (and (and (and (and (and (and (and (and (and (and (and (and (and (and (and (and (and (and (and (and (and (and (and (and (and (and (and (and (and (and (and (and (and (and (and (and (and (and (and (and (and (and (and (and (and (and (and (and (and (and (and (and (and (and (and (and (and (and (and (and (and (and (and (and (and (and (and (and (and (and (and (and (and (and (and (and (and (and (and (and (and (and (and (and (and (and (and (and (and (and (and (and (and (and (and (and (and (and (and (and (and (and (and (and (and (and (and (and (and (and (and (and (and (and (and (and (and (and (and (and (and (and (and (and (and (and (and (and (and (and (and (and (and (and (and (and (and (and (and (and (and (and (and (and (and (and (and (and (and (and (and (and (and (and (and (and (and (and (and (and (and (and (and (and (and (and (and (and (and (and (and (and (and (and (and (and (and (and (and (and (and (and (and (and (and (and (and (and (and (and (and (and (and (and (and (and (and (and (and (and (and (and (and (and (and (and (and (and (and (and (and (and (and (and (and (and (and (and (and (and (and (and (and (and (and (and (and (and (and (and (and (and (and (and (and (and (and (and (and (and (and (and (and (and (and (and (and (and (and (and (and (and (and (and (and (and (and (and (and (and (and (and (and (and (and (and (and (and (and (and (and (and (and (and (and (and (and (and (and (and (and (and (and (and (and (and (and (and (and (and (and (and (and (and (and (and (and (and (and (and (and (and (and (and (and (and (and (and (and (and (and (and (and (and (and (and (and (and (and (or (or ?v_63 ?v_6) ?v_48) (or (or ?v_23 ?v_7) ?v_128)) (or (or ?v_10 ?v_85) ?v_150)) (or (or ?v_20 ?v_43) ?v_78)) (or (or P15 ?v_79) P4)) (or (or ?v_86 P4) P7)) (or (or ?v_121 P9) ?v_72)) (or (or ?v_30 ?v_8) ?v_4)) (or (or P3 ?v_68) ?v_36)) (or (or ?v_3 ?v_24) ?v_71)) (or (or P8 ?v_12) ?v_45)) (or (or ?v_104 ?v_2) ?v_11)) (or (or ?v_116 ?v_82) ?v_64)) (or (or P19 ?v_34) ?v_16)) (or (or ?v_35 ?v_27) ?v_3)) (or (or ?v_4 ?v_5) ?v_40)) (or (or ?v_53 ?v_39) ?v_112)) (or (or ?v_28 ?v_32) ?v_18)) (or (or P17 ?v_6) ?v_7)) (or (or P25 P20) ?v_26)) (or (or ?v_49 ?v_42) ?v_9)) (or (or ?v_92 ?v_10) ?v_44)) (or (or P8 ?v_69) ?v_12)) (or (or ?v_13 ?v_15) ?v_57)) (or (or ?v_14 ?v_142) ?v_15)) (or (or P2 ?v_16) ?v_17)) (or (or P25 ?v_123) ?v_66)) (or (or ?v_19 ?v_50) ?v_8)) (or (or ?v_21 ?v_21) ?v_22)) (or (or ?v_23 ?v_38) ?v_81)) (or (or P27 ?v_26) P0)) (or (or P7 ?v_21) ?v_19)) (or (or ?v_27 ?v_9) ?v_51)) (or (or P13 ?v_28) ?v_29)) (or (or ?v_73 ?v_30) ?v_31)) (or (or ?v_23 P2) ?v_32)) (or (or ?v_30 ?v_16) ?v_33)) (or (or ?v_34 P10) ?v_55)) (or (or P7 ?v_130) P25)) (or (or ?v_35 ?v_119) P15)) (or (or ?v_32 ?v_30) ?v_36)) (or (or ?v_56 P23) P22)) (or (or ?v_38 ?v_31) ?v_32)) (or (or ?v_39 ?v_30) (not ?v_12))) (or (or ?v_40 ?v_47) ?v_110)) (or (or ?v_77 ?v_42) ?v_29)) (or (or ?v_43 ?v_115) ?v_42)) (or (or ?v_102 ?v_99) ?v_11)) (or (or P2 P24) ?v_52)) (or (or ?v_46 ?v_47) P2)) (or (or P9 P4) P7)) (or (or ?v_47 ?v_48) ?v_90)) (or (or P3 ?v_127) ?v_67)) (or (or ?v_39 P4) ?v_49)) (or (or ?v_98 ?v_96) ?v_54)) (or (or ?v_10 ?v_52) ?v_51)) (or (or P7 P12) ?v_107)) (or ?v_113 P24)) (or (or ?v_122 ?v_140) ?v_53)) (or (or ?v_54 P19) ?v_55)) (or (or ?v_8 ?v_80) ?v_57)) (or (or ?v_58 ?v_139) ?v_14)) (or (or ?v_59 ?v_34) ?v_48)) (or (or P25 ?v_16) ?v_108)) (or (or ?v_60 ?v_61) ?v_129)) (or (or ?v_84 P18) ?v_87)) (or (or ?v_28 ?v_63) ?v_144)) (or (or ?v_65 ?v_133) ?v_66)) (or (or ?v_67 ?v_68) ?v_69)) (or (or ?v_30 ?v_69) ?v_70)) (or (or ?v_71 ?v_55) P15)) (or (or ?v_12 ?v_125) ?v_72)) (or (or ?v_97 ?v_73) ?v_32)) (or (or P18 ?v_68) ?v_33)) (or (or ?v_74 ?v_19) P0)) (or (or ?v_61 ?v_75) ?v_76)) (or (or ?v_77 ?v_78) P13)) (or (or ?v_79 ?v_109) ?v_20)) (or (or ?v_6 ?v_75) ?v_80)) (or (or ?v_81 ?v_82) ?v_91)) (or (or ?v_83 ?v_72) P15)) (or (or ?v_84 P12) ?v_85)) (or (or P10 ?v_56) ?v_8)) (or (or ?v_86 ?v_87) ?v_15)) (or (or ?v_85 P23) ?v_81)) (or (or ?v_47 ?v_73) P7)) (or (or ?v_88 ?v_105) ?v_89)) (or (or ?v_13 ?v_81) ?v_90)) (or (or ?v_91 ?v_92) P21)) (or (or ?v_83 ?v_80) ?v_147)) (or (or ?v_106 ?v_93) P2)) (or (or ?v_94 P21) P24)) (or (or ?v_111 ?v_38) P14)) (or (or ?v_96 ?v_61) ?v_97)) (or (or P17 ?v_152) ?v_98)) (or (or ?v_99 ?v_3) ?v_86)) (or (or P3 ?v_117) P21)) (or (or ?v_75 ?v_45) ?v_49)) (or (or ?v_73 P24) ?v_100)) (or (or ?v_101 ?v_66) ?v_32)) (or (or ?v_86 ?v_69) ?v_44)) (or (or ?v_102 P10) ?v_13)) (or (or ?v_96 P14) ?v_103)) (or (or ?v_124 ?v_58) ?v_71)) (or (or ?v_66 ?v_63) ?v_104)) (or (or ?v_145 ?v_114) ?v_105)) (or (or P14 ?v_106) P2)) (or (or ?v_4 ?v_71) ?v_107)) (or (or ?v_108 ?v_35) ?v_109)) (or (or ?v_50 ?v_72) ?v_110)) (or (or ?v_53 ?v_88) ?v_110)) (or (or ?v_45 ?v_111) ?v_69)) (or (or ?v_112 ?v_59) P10)) (or (or ?v_34 ?v_45) P6)) (or (or ?v_104 ?v_77) P26)) (or (or ?v_132 ?v_59) P16)) (or (or ?v_17 P1) ?v_120)) (or ?v_113 ?v_114)) (or (or ?v_78 ?v_8) P5)) (or (or ?v_22 ?v_48) ?v_78)) (or (or ?v_115 ?v_116) ?v_52)) (or (or ?v_29 ?v_105) ?v_117)) (or (or ?v_64 ?v_106) P11)) (or (or ?v_75 ?v_110) ?v_39)) (or (or ?v_59 ?v_131) P21)) (or (or ?v_22 ?v_36) ?v_80)) (or (or ?v_46 P16) ?v_138)) (or (or ?v_81 P11) ?v_143)) (or (or ?v_118 ?v_119) ?v_120)) (or (or ?v_20 ?v_21) ?v_81)) (or (or ?v_85 ?v_121) P28)) (or (or ?v_104 ?v_85) ?v_23)) (or (or ?v_149 P22) ?v_96)) (or (or ?v_15 ?v_21) P24)) (or (or ?v_70 ?v_96) ?v_4)) (or (or ?v_122 ?v_107) ?v_32)) (or (or ?v_91 ?v_123) P18)) (or (or P6 ?v_34) ?v_124)) (or (or ?v_59 ?v_84) ?v_72)) (or (or ?v_16 ?v_6) P12)) (or (or ?v_125 ?v_50) ?v_55)) (or (or ?v_87 ?v_91) ?v_136)) (or (or ?v_121 ?v_126) ?v_50)) (or (or ?v_126 ?v_30) ?v_127)) (or (or ?v_52 ?v_32) ?v_69)) (or (or ?v_72 ?v_109) ?v_87)) (or (or ?v_124 ?v_27) ?v_99)) (or (or ?v_40 ?v_19) ?v_90)) (or (or P24 ?v_134) ?v_72)) (or (or ?v_29 P5) ?v_128)) (or (or ?v_120 ?v_10) ?v_16)) (or (or P29 ?v_101) ?v_128)) (or (or ?v_64 ?v_148) ?v_101)) (or (or ?v_102 ?v_61) ?v_110)) (or (or ?v_35 ?v_35) ?v_99)) (or (or ?v_129 P7) ?v_54)) (or (or ?v_75 P23) P24)) (or (or P6 ?v_119) ?v_130)) (or (or ?v_108 ?v_123) ?v_121)) (or (or ?v_74 ?v_32) ?v_44)) (or (or ?v_141 ?v_52) ?v_63)) (or (or ?v_47 ?v_32) P3)) (or (or ?v_108 ?v_135) P23)) (or (or ?v_131 ?v_132) ?v_133)) (or (or P0 ?v_109) ?v_59)) (or (or ?v_10 P12) ?v_60)) (or (or P14 ?v_81) ?v_12)) (or (or ?v_39 ?v_134) ?v_24)) (or (or P8 ?v_8) P26)) (or (or ?v_17 ?v_137) ?v_135)) (or (or ?v_136 ?v_59) ?v_88)) (or (or ?v_56 ?v_24) ?v_137)) (or (or ?v_97 ?v_32) ?v_28)) (or (or ?v_122 ?v_58) ?v_100)) (or (or ?v_138 ?v_3) ?v_77)) (or (or ?v_47 ?v_93) P2)) (or (or P12 P6) ?v_23)) (or (or ?v_40 ?v_139) ?v_4)) (or (or ?v_2 ?v_72) ?v_105)) (or (or ?v_126 ?v_65) ?v_140)) (or (or ?v_141 ?v_17) ?v_109)) (or (or ?v_88 ?v_101) ?v_9)) (or (or ?v_6 ?v_119) ?v_140)) (or (or ?v_94 ?v_59) ?v_114)) (or (or ?v_131 P15) ?v_55)) (or (or ?v_26 ?v_96) ?v_139)) (or (or ?v_17 ?v_23) ?v_50)) (or (or ?v_137 P2) ?v_135)) (or (or ?v_138 ?v_99) ?v_134)) (or (or ?v_142 ?v_94) ?v_106)) (or (or P12 P22) ?v_79)) (or (or ?v_130 ?v_45) ?v_105)) (or (or ?v_53 ?v_143) ?v_98)) (or (or ?v_46 ?v_153) P5)) (or (or ?v_135 ?v_143) ?v_80)) (or (or ?v_104 ?v_120) ?v_64)) (or (or ?v_5 ?v_27) ?v_26)) (or (or P8 ?v_144) ?v_10)) (or (or ?v_5 ?v_14) ?v_22)) (or (or ?v_28 ?v_75) ?v_67)) (or (or P14 ?v_14) ?v_110)) (or (or ?v_22 ?v_106) ?v_114)) (or (or ?v_40 ?v_58) ?v_129)) (or (or ?v_102 ?v_93) ?v_3)) (or (or ?v_114 ?v_82) ?v_139)) (or (or ?v_13 ?v_27) ?v_97)) (or (or ?v_112 ?v_46) ?v_84)) (or (or ?v_38 P3) ?v_144)) (or (or ?v_84 ?v_45) ?v_145)) (or (or ?v_27 ?v_146) P0)) (or (or ?v_146 ?v_121) P6)) (or (or ?v_81 ?v_147) ?v_47)) (or (or P6 ?v_134) ?v_26)) (or (or ?v_105 ?v_115) ?v_85)) (or (or ?v_148 ?v_61) ?v_21)) (or (or ?v_51 ?v_140) ?v_61)) (or (or ?v_149 ?v_123) ?v_36)) (or (or P19 ?v_47) ?v_147)) (or (or ?v_92 P16) ?v_139)) (or (or ?v_34 P4) ?v_136)) (or (or ?v_52 ?v_123) P29)) (or (or ?v_120 ?v_142) ?v_30)) (or (or ?v_30 ?v_103) P0)) (or (or ?v_100 ?v_74) ?v_31)) (or (or ?v_36 ?v_125) ?v_14)) (or (or ?v_50 ?v_94) ?v_105)) (or (or ?v_150 ?v_73) ?v_11)) (or ?v_155 ?v_151)) (or (or ?v_109 ?v_44) P5)) (or (or P8 ?v_14) ?v_19)) (or (or ?v_68 ?v_43) ?v_74)) (or (or ?v_152 ?v_69) P24)) (or (or ?v_101 P29) ?v_24)) (or (or ?v_133 ?v_90) ?v_67)) (or (or ?v_45 ?v_30) ?v_125)) (or (or ?v_74 ?v_142) ?v_19)) (or (or ?v_18 ?v_77) ?v_136)) (or (or ?v_111 ?v_55) ?v_32)) (or (or ?v_74 ?v_144) ?v_86)) (or (or ?v_16 ?v_56) ?v_9)) (or (or ?v_75 ?v_26) P26)) (or (or ?v_24 (not ?v_67)) P22)) (or (or P5 ?v_69) ?v_91)) (or (or ?v_140 ?v_52) ?v_117)) (or (or ?v_63 ?v_53) ?v_153)) (or (or ?v_65 ?v_154) ?v_19)) (or (or ?v_131 ?v_97) ?v_9)) (or (or ?v_50 ?v_89) ?v_119)) (or (or ?v_93 ?v_70) ?v_138)) (or (or P8 ?v_51) ?v_2)) (or (or ?v_92 P9) ?v_22)) (or (or P16 ?v_55) ?v_81)) (or (or ?v_110 ?v_59) P13)) (or (or ?v_10 ?v_53) ?v_93)) (or (or ?v_115 ?v_99) ?v_43)) (or (or P25 ?v_83) ?v_28)) (or (or ?v_19 P26) ?v_136)) (or (or ?v_40 ?v_53) ?v_43)) (or (or ?v_13 ?v_26) ?v_33)) (or (or ?v_147 ?v_139) ?v_121)) (or (or P14 ?v_12) ?v_149)) (or (or ?v_11 ?v_6) ?v_42)) (or (or P15 P19) ?v_123)) (or (or ?v_148 ?v_4) P6)) (or (or P5 ?v_18) ?v_28)) (or (or ?v_38 ?v_78) ?v_122)) (or (or ?v_152 ?v_30) ?v_66)) (or (or ?v_90 ?v_127) ?v_136)) (or (or ?v_67 ?v_110) ?v_12)) (or (or P18 ?v_82) ?v_59)) (or (or ?v_69 ?v_107) ?v_153)) (or (or ?v_137 ?v_43) ?v_139)) (or (or ?v_153 ?v_34) P18)) (or (or ?v_148 ?v_57) ?v_21)) (or (or ?v_100 ?v_103) ?v_86)) (or (or ?v_140 ?v_80) ?v_16)) (or (or ?v_4 ?v_2) ?v_122)) (or (or ?v_73 P22) ?v_16)) (or (or ?v_33 P3) ?v_53)) (or (or ?v_47 P16) P14)) (or (or ?v_152 ?v_39) ?v_36)) (or (or ?v_147 ?v_154) ?v_47)) (or (or P24 ?v_77) P25)) (or (or ?v_112 ?v_114) ?v_149)) (or (or P21 ?v_58) ?v_48)) (or (or P2 ?v_136) ?v_131)) (or (or P17 P4) ?v_55)) (or (or P4 ?v_133) ?v_142)) (or (or ?v_91 ?v_2) P12)) (or (or ?v_29 ?v_45) P29)) (or (or ?v_33 ?v_47) ?v_13)) (or (or ?v_12 ?v_11) ?v_36)) (or (or ?v_106 ?v_116) P4)) (or (or ?v_59 ?v_55) ?v_130)) (or (or ?v_80 ?v_10) ?v_21)) (or (or ?v_84 ?v_38) P20)) (or (or P6 ?v_98) ?v_99)) (or (or P9 ?v_38) ?v_39)) (or (or ?v_29 ?v_122) ?v_82)) (or (or ?v_137 ?v_69) ?v_8)) (or (or ?v_85 ?v_89) ?v_65)) (or (or ?v_127 ?v_57) ?v_128)) (or (or P10 P20) ?v_26)) (or (or ?v_58 ?v_111) ?v_71)) (or (or ?v_53 ?v_91) ?v_104)) (or (or ?v_15 ?v_6) ?v_94)) (or (or ?v_109 P14) ?v_99)) (or (or P17 ?v_88) ?v_10)) (or (or ?v_26 ?v_112) ?v_142)) (or (or ?v_150 ?v_128) P29)) (or (or ?v_36 ?v_61) ?v_46)) (or (or ?v_114 ?v_13) ?v_55)) (or (or ?v_123 ?v_66) ?v_118)) (or (or ?v_97 ?v_39) ?v_132)) (or (or ?v_101 ?v_17) ?v_15)) (or (or ?v_92 P24) P21)) (or (or ?v_128 ?v_145) P21)) (or (or ?v_91 P12) ?v_100)) (or (or ?v_139 ?v_100) P24)) (or (or P4 ?v_111) ?v_125)) (or (or ?v_7 ?v_118) P19)) (or (or ?v_72 ?v_139) ?v_42)) (or (or ?v_116 ?v_56) ?v_132)) (or (or ?v_140 ?v_142) ?v_51)) (or (or P7 ?v_20) ?v_152)) (or (or ?v_89 ?v_21) ?v_32)) (or (or P23 ?v_48) ?v_110)) (or (or ?v_94 ?v_35) ?v_152)) (or (or ?v_35 ?v_47) ?v_97)) (or (or ?v_5 P21) ?v_99)) (or (or P3 ?v_15) P12)) (or (or ?v_38 ?v_32) ?v_46)) (or (or ?v_21 P23) P3)) (or (or ?v_13 ?v_94) ?v_96)) (or (or ?v_99 ?v_60) ?v_67)) (or (or P0 ?v_99) P13)) (or (or P27 ?v_154) ?v_106)) (or (or ?v_106 ?v_136) ?v_35)) (or (or P14 ?v_2) ?v_116)) (or (or ?v_60 ?v_86) ?v_17)) (or (or ?v_48 ?v_78) ?v_97)) (or (or P29 P8) ?v_46)) (or (or P8 ?v_102) ?v_146)) (or (or ?v_21 ?v_55) ?v_106)) (or (or ?v_67 ?v_153) ?v_74)) (or (or P4 ?v_34) ?v_49)) (or (or ?v_66 ?v_82) ?v_150)) (or (or ?v_82 ?v_120) ?v_91)) (or (or ?v_136 ?v_46) ?v_153)) (or (or ?v_123 ?v_153) ?v_21)) (or (or ?v_73 ?v_75) (not P15))) (or (or ?v_91 ?v_120) ?v_7)) (or ?v_155 ?v_140)) (or (or ?v_137 ?v_85) ?v_154)) (or (or ?v_34 ?v_149) ?v_136)) (or (or ?v_59 P21) P25)) (or (or P13 ?v_98) ?v_47)) (or (or ?v_73 ?v_57) ?v_66)) (or (or ?v_143 ?v_122) ?v_147)) (or (or ?v_10 ?v_68) P9)))))))))))))))))))))))))
(check-sat)
(exit)
